
Gurobi 9.5.2 (mac64[arm]) logging started Mon Jan  9 14:17:26 2023

Set parameter LogFile to value "./ccga_results/2023-01-09 14-17-25-78/MSP_TimeStampConvert_gurobi_log.txt"

Gurobi 9.5.2 (mac64[arm]) logging started Mon Jan  9 14:17:27 2023

Set parameter LogFile to value "./ccga_results/2023-01-09 14-17-25-78/MSP_TimeStampConvert_gurobi_log.txt"
Set parameter TimeLimit to value 180
Gurobi Optimizer version 9.5.2 build v9.5.2rc0 (mac64[arm])
Thread count: 8 physical cores, 8 logical processors, using up to 8 threads
Optimize a model with 140 rows, 97 columns and 322 nonzeros
Model fingerprint: 0x46bbeddf
Variable types: 25 continuous, 72 integer (72 binary)
Coefficient statistics:
  Matrix range     [1e+00, 1e+00]
  Objective range  [1e+00, 1e+00]
  Bounds range     [5e+01, 5e+01]
  RHS range        [1e+00, 1e+00]
Found heuristic solution: objective -0.0000000
Presolve removed 140 rows and 97 columns
Presolve time: 0.00s
Presolve: All rows and columns removed

Explored 0 nodes (0 simplex iterations) in 0.00 seconds (0.00 work units)
Thread count was 1 (of 8 available processors)

Solution count 2: 1200 -0 

Optimal solution found (tolerance 1.00e-03)
Best objective 1.200000000000e+03, best bound 1.200000000000e+03, gap 0.0000%

User-callback calls 352, time in user-callback 0.00 sec
